\ Model gr4x6_variant
\ LP format - for model browsing. Use MPS format to capture full model detail.
Minimize
  5.08 X[0] + 16.26 X[1] + 16.55 X[2] + 6.6 X[3] + 11.38 X[4] + 7.64 X[5]
   + 19.37 X[6] + 12.77 X[7] + 5.75 X[8] + 8.74 X[9] + 17.73 X[10]
   + 11.85 X[11] + 17.02 X[12] + 15.01 X[13] + 19.82 X[14] + 13.93 X[15]
   + 19.25 X[16] + 18.37 X[17] + 14.19 X[18] + 15.79 X[19] + 12.57 X[20]
   + 17.46 X[21] + 13.22 X[22] + 18.46 X[23] + 16.15 X[24] + 12.12 X[25]
   + 8.89 X[26] + 8.71 X[27] + 14.56 X[28] + 16.49 X[29] + 12.82 X[30]
   + 14.4 X[31] + 9.12 X[32] + 6.16 X[33] + 9.29 X[34] + 9.08 X[35]
   + 9.8 X[36] + 13.1 X[37] + 7.08 X[38] + 8.47 X[39] + 15.41 X[40]
   + 15.6 X[41] + 5.96 X[42] + 11.11 X[43] + 13.14 X[44] + 11.24 X[45]
   + 8.1 X[46] + 11.3 X[47] + 18.57 X[48] + 13.76 X[49] + 15.43 X[50]
   + 17.85 X[51] + 16.48 X[52] + 10.71 X[53] + 5.09 X[54] + 10.28 X[55]
   + 16.3 X[56] + 17.8 X[57] + 19.3 X[58] + 11.29 X[59] + 16.21 X[60]
   + 13.19 X[61] + 14.05 X[62] + 8.31 X[63] + 8.29 X[64] + 11.54 X[65]
   + 5.44 X[66] + 10.04 X[67] + 15.19 X[68] + 11.06 X[69] + 7.48 X[70]
   + 12.01 X[71] + 6.91 X[72] + 14.33 X[73] + 5.4 X[74] + 10.91 X[75]
   + 13.47 X[76] + 5.41 X[77] + 14.64 X[78] + 7.04 X[79] + 284.68 Y[0]
   + 120.11 Y[1] + 251.64 Y[2] + 184.66 Y[3] + 230.74 Y[4] + 404.49 Y[5]
   + 251.65 Y[6] + 400.8 Y[7] + 432.77 Y[8] + 200.91 Y[9] + 132.76 Y[10]
   + 107.75 Y[11] + 315.77 Y[12] + 499.96 Y[13] + 239.98 Y[14]
   + 360.06 Y[15] + 412.49 Y[16] + 360.7 Y[17] + 401.69 Y[18]
   + 479.84 Y[19] + 179.74 Y[20] + 108.15 Y[21] + 160.95 Y[22]
   + 150.49 Y[23] + 367.78 Y[24] + 325.59 Y[25] + 187.19 Y[26]
   + 379.79 Y[27] + 406.76 Y[28] + 167.12 Y[29] + 342.9 Y[30]
   + 399.17 Y[31] + 145.81 Y[32] + 427.72 Y[33] + 485.89 Y[34]
   + 143.24 Y[35] + 110.27 Y[36] + 224.78 Y[37] + 370.94 Y[38]
   + 483.27 Y[39] + 258.66 Y[40] + 386.01 Y[41] + 130.4 Y[42]
   + 376.25 Y[43] + 350.9 Y[44] + 140.76 Y[45] + 408.99 Y[46]
   + 440.12 Y[47] + 340.16 Y[48] + 148.42 Y[49] + 493.54 Y[50]
   + 413.05 Y[51] + 238.88 Y[52] + 271.35 Y[53] + 248.23 Y[54]
   + 302.38 Y[55] + 236.49 Y[56] + 439.83 Y[57] + 428.93 Y[58]
   + 142.22 Y[59] + 484.32 Y[60] + 354.23 Y[61] + 431.48 Y[62]
   + 382.92 Y[63] + 274.19 Y[64] + 393.52 Y[65] + 486.19 Y[66]
   + 208.03 Y[67] + 423.28 Y[68] + 315.27 Y[69] + 293.4 Y[70]
   + 274.23 Y[71] + 392.41 Y[72] + 207.36 Y[73] + 440.69 Y[74]
   + 432.29 Y[75] + 134.67 Y[76] + 452.65 Y[77] + 197.55 Y[78]
   + 285.88 Y[79]
Subject To
 A0: X[0] + X[1] + X[2] + X[3] + X[4] + X[5] + X[6] + X[7] = 100.28
 A1: X[8] + X[9] + X[10] + X[11] + X[12] + X[13] + X[14] + X[15] = 172.76
 A2: X[16] + X[17] + X[18] + X[19] + X[20] + X[21] + X[22] + X[23]
   = 162.67
 A3: X[24] + X[25] + X[26] + X[27] + X[28] + X[29] + X[30] + X[31]
   = 150.92
 A4: X[32] + X[33] + X[34] + X[35] + X[36] + X[37] + X[38] + X[39] = 83.7
 A5: X[40] + X[41] + X[42] + X[43] + X[44] + X[45] + X[46] + X[47] = 79.87
 A6: X[48] + X[49] + X[50] + X[51] + X[52] + X[53] + X[54] + X[55] = 53.66
 A7: X[56] + X[57] + X[58] + X[59] + X[60] + X[61] + X[62] + X[63] = 86.73
 A8: X[64] + X[65] + X[66] + X[67] + X[68] + X[69] + X[70] + X[71]
   = 121.27
 A9: X[72] + X[73] + X[74] + X[75] + X[76] + X[77] + X[78] + X[79]
   = 177.46
 B0: X[0] + X[8] + X[16] + X[24] + X[32] + X[40] + X[48] + X[56] + X[64]
   + X[72] <= 321.85
 B1: X[1] + X[9] + X[17] + X[25] + X[33] + X[41] + X[49] + X[57] + X[65]
   + X[73] <= 424.33
 B2: X[2] + X[10] + X[18] + X[26] + X[34] + X[42] + X[50] + X[58] + X[66]
   + X[74] <= 488.93
 B3: X[3] + X[11] + X[19] + X[27] + X[35] + X[43] + X[51] + X[59] + X[67]
   + X[75] <= 358.33
 B4: X[4] + X[12] + X[20] + X[28] + X[36] + X[44] + X[52] + X[60] + X[68]
   + X[76] <= 508.91
 B5: X[5] + X[13] + X[21] + X[29] + X[37] + X[45] + X[53] + X[61] + X[69]
   + X[77] <= 448.31
 B6: X[6] + X[14] + X[22] + X[30] + X[38] + X[46] + X[54] + X[62] + X[70]
   + X[78] <= 373.2
 B7: X[7] + X[15] + X[23] + X[31] + X[39] + X[47] + X[55] + X[63] + X[71]
   + X[79] <= 496.82
 G0: X[0] - 111.03 Y[0] <= 0
 G1: X[1] - 87.9 Y[1] <= 0
 G2: X[2] - 52.87 Y[2] <= 0
 G3: X[3] - 135.1 Y[3] <= 0
 G4: X[4] - 68.18 Y[4] <= 0
 G5: X[5] - 71.21 Y[5] <= 0
 G6: X[6] - 129.78 Y[6] <= 0
 G7: X[7] - 84.03 Y[7] <= 0
 G8: X[8] - 138.03 Y[8] <= 0
 G9: X[9] - 120.12 Y[9] <= 0
 G10: X[10] - 77.63 Y[10] <= 0
 G11: X[11] - 51.02 Y[11] <= 0
 G12: X[12] - 144.81 Y[12] <= 0
 G13: X[13] - 58.56 Y[13] <= 0
 G14: X[14] - 122.01 Y[14] <= 0
 G15: X[15] - 98.86 Y[15] <= 0
 G16: X[16] - 125.82 Y[16] <= 0
 G17: X[17] - 119.06 Y[17] <= 0
 G18: X[18] - 114.59 Y[18] <= 0
 G19: X[19] - 99.08 Y[19] <= 0
 G20: X[20] - 129.29 Y[20] <= 0
 G21: X[21] - 59.31 Y[21] <= 0
 G22: X[22] - 72.16 Y[22] <= 0
 G23: X[23] - 119.18 Y[23] <= 0
 G24: X[24] - 80.62 Y[24] <= 0
 G25: X[25] - 108.16 Y[25] <= 0
 G26: X[26] - 97.33 Y[26] <= 0
 G27: X[27] - 103.09 Y[27] <= 0
 G28: X[28] - 92.55 Y[28] <= 0
 G29: X[29] - 124.59 Y[29] <= 0
 G30: X[30] - 83.08 Y[30] <= 0
 G31: X[31] - 120.29 Y[31] <= 0
 G32: X[32] - 77.09 Y[32] <= 0
 G33: X[33] - 75.14 Y[33] <= 0
 G34: X[34] - 62.07 Y[34] <= 0
 G35: X[35] - 69.26 Y[35] <= 0
 G36: X[36] - 61.96 Y[36] <= 0
 G37: X[37] - 103.59 Y[37] <= 0
 G38: X[38] - 126.22 Y[38] <= 0
 G39: X[39] - 68.51 Y[39] <= 0
 G40: X[40] - 71.64 Y[40] <= 0
 G41: X[41] - 98.42 Y[41] <= 0
 G42: X[42] - 122.46 Y[42] <= 0
 G43: X[43] - 147.66 Y[43] <= 0
 G44: X[44] - 102.46 Y[44] <= 0
 G45: X[45] - 78.3 Y[45] <= 0
 G46: X[46] - 60.05 Y[46] <= 0
 G47: X[47] - 69.41 Y[47] <= 0
 G48: X[48] - 72.75 Y[48] <= 0
 G49: X[49] - 67.94 Y[49] <= 0
 G50: X[50] - 51.41 Y[50] <= 0
 G51: X[51] - 103.41 Y[51] <= 0
 G52: X[52] - 77.43 Y[52] <= 0
 G53: X[53] - 147.43 Y[53] <= 0
 G54: X[54] - 105.34 Y[54] <= 0
 G55: X[55] - 119.74 Y[55] <= 0
 G56: X[56] - 62.63 Y[56] <= 0
 G57: X[57] - 136.85 Y[57] <= 0
 G58: X[58] - 99.09 Y[58] <= 0
 G59: X[59] - 137.27 Y[59] <= 0
 G60: X[60] - 107.41 Y[60] <= 0
 G61: X[61] - 96.94 Y[61] <= 0
 G62: X[62] - 94.05 Y[62] <= 0
 G63: X[63] - 68.44 Y[63] <= 0
 G64: X[64] - 55.14 Y[64] <= 0
 G65: X[65] - 144.11 Y[65] <= 0
 G66: X[66] - 97.77 Y[66] <= 0
 G67: X[67] - 132.21 Y[67] <= 0
 G68: X[68] - 90.07 Y[68] <= 0
 G69: X[69] - 57.41 Y[69] <= 0
 G70: X[70] - 112.94 Y[70] <= 0
 G71: X[71] - 55.36 Y[71] <= 0
 G72: X[72] - 64.92 Y[72] <= 0
 G73: X[73] - 106.28 Y[73] <= 0
 G74: X[74] - 80.38 Y[74] <= 0
 G75: X[75] - 149.39 Y[75] <= 0
 G76: X[76] - 61.85 Y[76] <= 0
 G77: X[77] - 126.44 Y[77] <= 0
 G78: X[78] - 110.63 Y[78] <= 0
 G79: X[79] - 129.07 Y[79] <= 0
 H0: Y[0] + Y[8] + Y[16] + Y[24] + Y[32] + Y[40] + Y[48] + Y[56] + Y[64]
   + Y[72] >= 1
 H1: Y[1] + Y[9] + Y[17] + Y[25] + Y[33] + Y[41] + Y[49] + Y[57] + Y[65]
   + Y[73] >= 1
 H2: Y[2] + Y[10] + Y[18] + Y[26] + Y[34] + Y[42] + Y[50] + Y[58] + Y[66]
   + Y[74] >= 1
 H3: Y[3] + Y[11] + Y[19] + Y[27] + Y[35] + Y[43] + Y[51] + Y[59] + Y[67]
   + Y[75] >= 1
 H4: Y[4] + Y[12] + Y[20] + Y[28] + Y[36] + Y[44] + Y[52] + Y[60] + Y[68]
   + Y[76] >= 1
 H5: Y[5] + Y[13] + Y[21] + Y[29] + Y[37] + Y[45] + Y[53] + Y[61] + Y[69]
   + Y[77] >= 1
 H6: Y[6] + Y[14] + Y[22] + Y[30] + Y[38] + Y[46] + Y[54] + Y[62] + Y[70]
   + Y[78] >= 1
 H7: Y[7] + Y[15] + Y[23] + Y[31] + Y[39] + Y[47] + Y[55] + Y[63] + Y[71]
   + Y[79] >= 1
Bounds
 X[0] <= 149.39
 X[1] <= 149.39
 X[2] <= 149.39
 X[3] <= 149.39
 X[4] <= 149.39
 X[5] <= 149.39
 X[6] <= 149.39
 X[7] <= 149.39
 X[8] <= 149.39
 X[9] <= 149.39
 X[10] <= 149.39
 X[11] <= 149.39
 X[12] <= 149.39
 X[13] <= 149.39
 X[14] <= 149.39
 X[15] <= 149.39
 X[16] <= 149.39
 X[17] <= 149.39
 X[18] <= 149.39
 X[19] <= 149.39
 X[20] <= 149.39
 X[21] <= 149.39
 X[22] <= 149.39
 X[23] <= 149.39
 X[24] <= 149.39
 X[25] <= 149.39
 X[26] <= 149.39
 X[27] <= 149.39
 X[28] <= 149.39
 X[29] <= 149.39
 X[30] <= 149.39
 X[31] <= 149.39
 X[32] <= 149.39
 X[33] <= 149.39
 X[34] <= 149.39
 X[35] <= 149.39
 X[36] <= 149.39
 X[37] <= 149.39
 X[38] <= 149.39
 X[39] <= 149.39
 X[40] <= 149.39
 X[41] <= 149.39
 X[42] <= 149.39
 X[43] <= 149.39
 X[44] <= 149.39
 X[45] <= 149.39
 X[46] <= 149.39
 X[47] <= 149.39
 X[48] <= 149.39
 X[49] <= 149.39
 X[50] <= 149.39
 X[51] <= 149.39
 X[52] <= 149.39
 X[53] <= 149.39
 X[54] <= 149.39
 X[55] <= 149.39
 X[56] <= 149.39
 X[57] <= 149.39
 X[58] <= 149.39
 X[59] <= 149.39
 X[60] <= 149.39
 X[61] <= 149.39
 X[62] <= 149.39
 X[63] <= 149.39
 X[64] <= 149.39
 X[65] <= 149.39
 X[66] <= 149.39
 X[67] <= 149.39
 X[68] <= 149.39
 X[69] <= 149.39
 X[70] <= 149.39
 X[71] <= 149.39
 X[72] <= 149.39
 X[73] <= 149.39
 X[74] <= 149.39
 X[75] <= 149.39
 X[76] <= 149.39
 X[77] <= 149.39
 X[78] <= 149.39
 X[79] <= 149.39
Binaries
 Y[0] Y[1] Y[2] Y[3] Y[4] Y[5] Y[6] Y[7] Y[8] Y[9] Y[10] Y[11] Y[12] Y[13]
 Y[14] Y[15] Y[16] Y[17] Y[18] Y[19] Y[20] Y[21] Y[22] Y[23] Y[24] Y[25]
 Y[26] Y[27] Y[28] Y[29] Y[30] Y[31] Y[32] Y[33] Y[34] Y[35] Y[36] Y[37]
 Y[38] Y[39] Y[40] Y[41] Y[42] Y[43] Y[44] Y[45] Y[46] Y[47] Y[48] Y[49]
 Y[50] Y[51] Y[52] Y[53] Y[54] Y[55] Y[56] Y[57] Y[58] Y[59] Y[60] Y[61]
 Y[62] Y[63] Y[64] Y[65] Y[66] Y[67] Y[68] Y[69] Y[70] Y[71] Y[72] Y[73]
 Y[74] Y[75] Y[76] Y[77] Y[78] Y[79]
End
